27	3

10	10	10	

0	0	0	0	3	2	3	4	
1	3	5	2	3	6	7	8	
4	5	4	3	2	5	6	
9	5	2	2	2	5	6	
8	4	1	4	2	11	12	
2	5	5	4	2	9	10	
4	3	5	2	2	9	10	
3	2	4	4	2	10	11	
4	3	2	2	2	13	14	
2	3	2	4	1	15	
1	3	3	2	1	13	
3	4	1	4	2	13	16	
2	1	4	4	1	18	
8	2	2	2	1	19	
1	5	5	4	1	17	
5	1	5	4	1	20	
2	4	5	4	1	22	
3	3	2	3	1	21	
6	5	3	3	1	21	
4	2	4	6	3	22	23	24	
6	1	6	2	1	25	
3	3	2	1	1	26	
6	1	0	4	1	25	
2	2	2	1	1	26	
4	0	1	3	1	27	
3	2	2	2	1	27	
0	0	0	0	0	
